NAME: random101
TYPE: TSP
DIMENSION: 101
EDGE_WEIGHT_TYPE: EXPLICIT
EDGE_WEIGHT_FORMAT: FULL_MATRIX
EDGE_WEIGHT_SECTION
0 121 31 38 121 22 121 121 43 121 18 121 121 1 22 121 24 121 121 35 121 37 46 121 20 17 121 45 43 121 32 121 9 49 121 121 20 39 15 121 29 19 121 41 121 121 22 121 13 22 29 35 121 121 121 121 26 121 121 121 121 121 23 29 15 26 121 121 121 121 121 121 35 121 32 34 121 24 121 121 37 31 17 13 34 121 22 50 121 121 121 121 121 121 121 15 28 27 121 121 38
121 0 121 121 121 121 63 121 44 121 121 4 121 121 121 121 121 121 121 121 10 121 17 121 121 121 5 121 121 3 121 121 121 30 47 121 121 121 121 72 121 121 121 28 73 44 121 67 121 121 121 121 121 13 121 121 121 121 121 121 57 121 121 53 121 121 121 38 54 87 121 121 121 121 121 121 71 48 121 121 121 121 121 121 121 121 121 16 121 121 121 13 26 121 121 121 35 121 57 48 121
31 121 0 38 121 121 121 121 121 121 32 121 52 30 30 23 121 121 18 17 121 6 121 121 35 31 121 121 121 121 25 44 30 121 121 21 121 121 31 121 18 34 121 121 121 121 121 121 41 16 121 121 121 121 121 9 121 27 121 45 121 121 121 121 34 121 121 121 121 121 121 5 121 34 33 121 121 121 28 121 20 121 121 33 121 12 121 121 14 25 49 121 121 121 10 121 121 5 121 121 121
38 121 38 0 121 121 17 121 121 121 121 121 16 38 121 61 121 121 56 23 121 39 121 121 121 121 121 121 121 121 14 121 30 121 121 121 121 121 121 121 121 121 121 121 26 121 121 121 35 46 121 121 121 121 121 43 121 65 10 121 21 121 121 25 25 121 15 121 121 121 121 40 121 121 7 13 26 121 61 25 22 121 121 121 18 49 28 121 51 121 121 121 121 9 43 121 121 35 24 121 121
121 121 121 121 0 23 121 25 121 9 121 68 121 121 35 121 121 121 121 121 63 121 121 6 30 121 121 16 23 121 121 121 121 40 121 121 24 7 121 10 121 121 25 121 121 121 21 121 121 121 15 31 27 58 27 121 20 59 121 21 121 22 33 121 121 121 121 121 20 19 13 121 8 121 121 121 121 121 121 121 121 19 121 121 121 121 121 121 121 121 29 121 53 121 121 29 121 121 121 121 27
22 121 121 121 23 0 121 121 121 19 121 121 121 23 121 121 15 121 121 121 121 121 121 22 20 21 121 23 22 121 121 121 30 33 121 121 12 18 21 121 121 20 121 28 121 121 8 121 26 121 14 18 121 121 121 121 15 121 121 21 121 121 12 121 35 19 121 121 28 121 26 121 17 121 121 121 121 36 121 121 121 9 14 18 121 121 36 121 121 121 121 121 121 121 121 11 24 121 121 121 18
121 63 121 17 121 121 0 121 21 121 121 121 21 121 121 121 121 121 121 121 121 121 121 121 121 121 121 121 121 121 28 121 32 121 20 121 121 121 121 121 121 121 121 121 18 21 121 18 31 121 121 121 121 121 121 121 121 121 7 121 8 121 121 14 24 121 20 29 121 121 121 121 121 121 19 6 17 23 76 19 37 121 121 121 7 121 21 48 121 121 121 121 121 15 121 121 121 121 8 22 121
121 121 121 121 25 121 121 0 121 24 121 92 121 121 39 58 121 11 121 121 88 121 121 30 37 121 121 121 121 121 121 25 121 65 121 121 121 31 121 26 121 121 3 121 121 121 36 121 121 121 29 121 6 82 12 121 31 50 121 26 121 18 121 121 121 121 121 121 43 14 36 121 27 35 121 121 121 121 76 121 121 42 121 121 121 121 121 121 121 46 18 121 78 121 121 121 121 121 121 121 121
43 44 121 121 121 121 21 121 0 121 121 47 121 121 121 121 40 121 121 121 121 121 34 121 121 121 38 121 121 43 45 121 38 121 5 121 121 121 121 121 121 121 121 43 30 1 121 25 31 121 121 121 121 121 121 121 121 121 27 121 16 121 43 16 31 37 121 8 121 121 121 121 121 121 37 24 28 19 121 33 121 121 121 121 19 121 22 28 121 121 121 43 121 36 121 121 32 121 14 9 121
121 121 121 121 9 19 121 24 121 0 25 69 121 121 27 121 121 23 121 121 66 121 121 13 21 25 121 22 27 121 121 30 121 43 121 40 17 10 26 18 41 22 26 121 121 121 14 121 121 40 7 32 24 60 23 121 12 51 121 12 121 15 30 121 121 121 121 121 26 23 20 121 4 35 121 121 121 121 121 121 121 18 20 121 121 121 121 121 121 121 23 121 58 121 121 22 121 121 121 121 29
18 121 32 121 121 121 121 121 121 25 0 121 121 18 6 121 121 32 36 121 121 121 121 121 3 1 121 121 121 121 121 27 121 121 121 20 10 121 3 121 20 2 121 121 121 121 121 121 121 16 18 121 36 121 31 121 13 34 121 14 121 22 121 121 121 121 121 121 121 121 121 121 121 23 121 121 121 121 121 121 121 121 7 5 121 38 121 121 121 27 26 121 121 121 121 10 121 29 121 121 121
121 4 121 121 68 121 121 92 47 69 121 0 121 121 121 121 121 121 121 121 6 121 18 62 121 121 9 53 45 4 121 121 121 28 50 121 121 121 121 70 121 121 93 27 121 47 121 71 121 121 121 38 121 10 121 121 121 121 121 121 121 121 121 121 121 121 121 41 52 84 58 121 121 121 121 121 121 121 121 121 121 121 121 121 121 121 121 18 121 121 121 12 22 121 121 121 121 121 60 51 41
121 121 52 16 121 121 21 121 121 121 121 121 0 121 121 75 121 121 70 36 121 52 121 121 121 121 121 121 121 121 28 92 45 121 121 121 121 121 121 121 67 121 112 121 17 121 121 23 121 121 121 121 105 121 121 55 121 80 18 121 28 121 121 121 39 121 1 121 121 121 121 54 121 83 22 22 18 121 72 14 33 121 121 121 26 62 121 121 64 77 121 121 121 7 56 121 121 49 27 121 121
1 121 30 38 121 23 121 121 121 121 18 121 121 0 22 121 25 121 43 34 121 36 121 121 20 17 121 121 121 121 31 44 8 121 121 31 20 121 15 121 29 19 121 121 121 121 23 121 14 21 121 36 121 121 121 40 121 121 121 30 121 121 24 29 15 27 121 121 121 121 121 36 121 39 32 34 121 24 121 121 37 32 17 13 34 41 22 121 121 39 43 121 121 121 121 15 29 26 121 121 121
22 121 30 121 35 121 121 39 121 27 6 121 121 22 0 32 121 29 32 43 121 35 121 121 6 6 121 121 121 121 45 22 29 121 121 15 14 121 8 121 15 6 42 121 121 121 19 121 121 14 20 121 34 121 28 37 16 28 121 15 121 21 121 121 121 121 121 121 121 46 121 34 28 18 121 121 121 121 48 121 121 121 12 11 121 34 121 121 34 21 23 121 121 121 38 16 121 28 121 121 121
121 121 23 61 121 121 121 58 121 121 121 121 75 121 32 0 121 47 5 39 121 121 121 121 121 121 121 121 121 121 48 33 121 121 121 17 121 121 121 121 18 121 61 121 121 121 121 121 121 24 121 121 52 121 46 21 121 8 121 121 121 44 121 121 121 121 74 121 121 70 121 22 121 23 121 121 121 121 18 86 42 121 121 121 121 13 121 121 12 12 40 121 121 121 21 121 121 121 121 121 121
24 121 121 121 121 15 121 121 40 121 121 121 121 25 121 121 0 121 121 121 121 121 26 121 121 121 121 29 24 121 52 121 29 25 121 121 26 29 121 121 121 121 121 17 121 121 23 121 20 121 121 12 121 34 121 121 121 121 121 121 121 121 3 34 30 4 121 121 32 121 121 121 31 121 50 45 121 26 121 121 121 17 27 28 42 121 27 32 121 121 121 30 40 121 121 22 9 51 121 121 16
121 121 121 121 121 121 121 11 121 23 32 121 121 121 29 47 121 0 121 121 121 121 121 121 29 33 121 121 121 121 121 13 121 121 121 36 121 121 35 121 38 30 14 121 121 121 121 121 121 41 121 121 6 121 1 121 121 39 121 20 121 11 121 121 121 121 121 121 121 24 121 121 121 24 121 121 121 121 65 121 121 121 121 121 121 121 121 121 121 35 7 121 121 121 121 121 121 121 121 121 121
121 121 18 56 121 121 121 121 121 121 36 121 70 43 32 5 121 121 0 34 121 17 121 121 38 36 121 121 121 121 43 36 121 121 121 17 121 121 36 121 16 37 64 121 121 121 121 121 121 22 121 121 55 121 121 16 121 12 121 45 121 121 121 121 121 121 69 121 121 121 121 16 121 25 121 121 121 121 17 81 37 121 121 121 121 8 121 121 7 14 43 121 121 121 15 121 121 22 121 121 121
35 121 17 23 121 121 121 121 121 121 121 121 36 34 43 39 121 121 34 0 121 17 121 121 121 121 121 121 121 121 11 121 30 121 121 121 121 121 41 121 34 121 121 121 121 121 121 121 40 30 121 121 121 121 121 20 121 44 32 121 121 121 121 40 30 121 35 121 121 121 121 18 121 121 19 32 121 121 38 48 3 121 121 42 37 27 39 121 28 121 121 121 121 31 20 121 121 16 121 121 121
121 10 121 121 63 121 121 88 121 66 121 6 121 121 121 121 121 121 121 121 0 121 18 58 121 121 13 48 40 9 121 121 121 23 121 121 121 121 121 65 121 121 88 24 121 121 121 121 121 121 121 34 121 6 121 121 121 121 121 121 121 121 121 121 121 121 121 45 46 80 53 121 121 121 121 121 121 121 121 121 121 121 121 121 121 121 121 22 121 121 121 10 16 121 121 121 121 121 121 56 37
37 121 6 39 121 121 121 121 121 121 121 121 52 36 35 121 121 121 17 17 121 0 121 121 121 121 121 121 121 121 26 121 35 121 121 25 121 121 36 121 22 121 121 121 121 121 121 121 46 22 121 121 121 121 121 4 121 121 121 121 121 121 121 121 39 121 52 121 121 121 121 1 121 121 34 121 121 121 23 121 19 121 121 39 121 10 121 121 12 28 121 121 121 121 5 121 121 10 121 121 121
46 17 121 121 121 121 121 121 34 121 121 18 121 121 121 121 26 121 121 121 18 121 0 121 121 121 13 121 37 14 121 121 47 23 38 121 121 121 121 121 121 121 121 15 121 34 121 121 36 121 121 26 121 15 121 121 121 121 121 121 44 121 29 39 45 22 121 30 45 121 121 121 121 121 121 121 121 33 121 121 121 39 121 121 121 121 36 9 121 121 121 9 28 121 121 121 19 121 46 41 30
121 121 121 121 6 22 121 30 121 13 121 62 121 121 121 121 121 121 121 121 58 121 121 0 121 121 121 11 17 121 121 121 121 35 121 121 121 5 121 10 121 121 31 121 121 121 22 121 121 121 18 27 121 53 121 121 121 121 121 25 121 27 30 121 121 121 121 121 14 23 8 121 10 121 121 121 121 121 121 121 121 16 121 121 121 121 121 121 121 121 121 121 48 121 121 121 121 121 121 121 22
20 121 35 121 30 20 121 37 121 21 3 121 121 20 6 121 121 29 38 121 121 121 121 121 0 4 121 121 121 121 121 25 121 121 121 21 8 121 6 121 22 1 121 121 121 121 13 121 121 19 15 121 33 121 28 121 10 35 121 11 121 19 30 121 121 121 121 121 121 42 121 121 22 23 121 121 121 121 121 121 121 27 6 7 121 40 121 121 121 28 23 121 121 121 121 10 121 32 121 121 121
17 121 31 121 121 21 121 121 121 25 1 121 121 17 6 121 121 33 36 121 121 121 121 121 4 0 121 121 121 121 121 27 25 121 121 20 10 121 2 121 20 3 121 121 121 121 15 121 30 16 18 121 37 121 31 121 13 34 121 15 121 22 29 121 121 121 121 121 121 121 121 121 121 24 121 121 121 121 121 121 121 121 7 5 121 37 121 121 121 27 26 121 121 121 121 10 121 29 121 121 121
121 5 121 121 121 121 121 121 38 121 121 9 121 121 121 121 121 121 121 121 13 121 13 121 121 121 0 121 46 5 121 121 121 30 41 121 121 121 121 121 121 121 121 26 121 39 121 62 47 121 121 37 121 14 121 121 121 121 121 121 51 121 121 47 121 35 121 32 54 121 121 121 121 121 121 121 121 43 121 121 121 121 121 121 121 121 46 10 121 121 121 13 29 121 121 121 31 121 51 43 41
45 121 121 121 16 23 121 121 121 22 121 53 121 121 121 121 29 121 121 121 48 121 121 11 121 121 121 0 8 121 121 121 121 25 121 121 31 12 121 18 121 121 121 30 121 121 26 121 47 121 25 20 121 43 121 121 30 121 121 121 121 121 27 121 121 32 121 121 5 32 5 121 19 121 121 121 121 121 121 121 121 15 121 121 121 121 121 121 121 121 121 42 37 121 121 34 121 121 121 121 15
43 121 121 121 23 22 121 121 121 27 121 45 121 121 121 121 24 121 121 121 40 121 37 17 121 121 46 8 0 45 121 121 121 18 121 121 32 17 121 25 121 121 121 22 121 121 27 121 43 121 28 13 121 35 121 121 32 121 121 121 121 121 23 121 121 26 121 121 9 39 13 121 23 121 121 121 121 121 121 121 121 13 121 121 121 121 121 121 121 121 121 34 31 121 121 33 31 121 121 121 8
121 3 121 121 121 121 121 121 43 121 121 4 121 121 121 121 121 121 121 121 9 121 14 121 121 121 5 121 45 0 121 121 121 28 46 121 121 121 121 70 121 121 121 25 121 43 121 67 121 121 121 36 121 11 121 121 121 121 121 121 121 121 121 121 121 36 121 37 52 84 121 121 121 121 121 121 121 46 121 121 121 121 121 121 121 121 121 14 121 121 121 11 25 121 121 121 33 121 56 47 40
32 121 25 14 121 121 28 121 45 121 121 121 28 31 45 48 52 121 43 11 121 26 121 121 121 121 121 121 121 121 0 121 24 121 121 121 121 121 41 121 39 121 121 121 121 121 121 121 33 34 121 121 121 121 121 29 121 52 21 121 29 121 52 30 23 53 27 121 121 121 121 27 121 121 9 22 121 34 48 38 10 121 121 41 26 36 30 121 37 121 121 121 121 22 30 45 51 21 121 121 121
121 121 44 121 121 121 121 25 121 30 27 121 92 44 22 33 121 13 36 121 121 121 121 121 25 27 121 121 121 121 121 0 121 121 121 24 30 121 29 121 27 25 28 121 121 121 121 121 121 31 29 121 19 121 13 121 26 26 121 21 121 15 121 121 121 121 121 121 121 37 121 121 121 11 121 121 121 121 52 121 64 121 30 32 121 43 121 121 42 22 8 121 121 121 49 121 121 45 121 121 121
9 121 30 30 121 30 32 121 38 121 121 121 45 8 29 121 29 121 121 30 121 35 47 121 121 25 121 121 121 121 24 121 0 121 121 121 29 121 23 121 33 121 121 44 121 121 31 121 11 25 121 40 121 121 121 39 121 121 29 121 27 121 28 22 7 30 44 121 121 121 121 35 121 121 24 26 121 19 57 121 31 38 25 21 26 41 16 49 121 121 121 121 121 38 39 23 30 25 121 121 121
49 30 121 121 40 33 121 65 121 43 121 28 121 121 121 121 25 121 121 121 23 121 23 35 121 121 30 25 18 28 121 121 121 0 121 121 121 34 121 42 121 121 66 11 121 121 40 121 44 121 121 15 121 18 121 121 121 121 121 121 121 121 26 121 121 24 121 53 24 57 30 121 40 121 121 121 121 47 121 121 121 27 121 121 121 121 121 31 121 121 121 18 15 121 121 44 26 121 121 121 15
121 47 121 121 121 121 20 121 5 121 121 50 121 121 121 121 121 121 121 121 121 121 38 121 121 121 41 121 121 46 121 121 121 121 0 121 121 121 121 121 121 121 121 121 27 4 121 21 121 121 121 121 121 121 121 121 121 121 26 121 17 121 121 19 121 121 121 9 121 121 121 121 121 121 121 24 25 23 121 29 121 121 121 121 20 121 121 32 121 121 121 47 121 34 121 121 37 121 12 5 121
121 121 21 121 121 121 121 121 121 40 20 121 121 31 15 17 121 36 17 121 121 25 121 121 21 20 121 121 121 121 121 24 121 121 121 0 29 121 21 121 3 21 49 121 121 121 121 121 121 10 35 121 41 121 34 26 30 15 121 28 121 30 121 121 121 121 121 121 121 121 121 23 121 13 121 121 121 121 34 121 121 121 26 24 121 21 121 121 20 8 28 121 121 121 26 121 121 22 121 121 121
20 121 121 121 24 12 121 121 121 17 10 121 121 20 14 121 26 121 121 121 121 121 121 121 8 10 121 31 32 121 121 30 29 121 121 29 0 22 11 121 29 8 121 121 121 121 5 121 30 26 9 30 121 121 121 121 6 121 121 11 121 20 23 121 121 121 121 121 121 121 121 121 16 30 121 121 121 121 121 121 121 19 4 9 121 121 121 121 121 121 26 121 121 121 121 6 121 121 121 121 30
39 121 121 121 7 18 121 31 121 10 121 121 121 121 121 121 29 121 121 121 121 121 121 5 121 121 121 12 17 121 121 121 121 34 121 121 22 0 121 15 121 121 32 36 121 121 17 121 44 121 14 25 121 121 121 121 18 121 121 21 121 25 26 121 121 33 121 121 16 26 11 121 7 121 121 121 121 121 121 121 121 12 121 121 121 121 121 121 121 121 121 121 48 121 121 25 121 121 121 121 20
15 121 31 121 121 21 121 121 121 26 3 121 121 15 8 121 121 35 36 41 121 36 121 121 6 2 121 121 121 121 41 29 23 121 121 21 11 121 0 121 20 5 121 121 121 121 15 121 28 15 19 121 39 121 34 121 15 35 121 17 121 25 28 121 30 121 121 121 121 121 121 36 121 25 121 121 121 121 121 121 121 121 7 3 121 37 121 121 121 28 28 121 121 121 121 9 121 28 121 121 121
121 72 121 121 10 121 121 26 121 18 121 70 121 121 121 121 121 121 121 121 65 121 121 10 121 121 121 18 25 70 121 121 121 42 121 121 121 15 121 0 121 121 25 47 121 121 31 121 121 121 25 37 29 60 121 121 121 67 121 30 121 29 121 121 121 121 121 121 19 14 12 121 18 121 121 121 121 121 121 121 121 26 121 121 121 121 121 121 121 121 121 59 53 121 121 121 121 121 121 121 31
29 121 18 121 121 121 121 121 121 41 20 121 67 29 15 18 121 38 16 34 121 22 121 121 22 20 121 121 121 121 39 27 33 121 121 3 29 121 20 121 0 21 52 121 121 121 121 121 121 7 36 121 44 121 37 23 31 17 121 29 121 32 121 121 121 121 121 121 121 121 121 21 121 17 121 121 121 121 33 121 37 121 26 23 121 19 121 121 19 11 31 121 121 121 23 121 121 19 121 121 121
19 121 34 121 121 20 121 121 121 22 2 121 121 19 6 121 121 30 37 121 121 121 121 121 1 3 121 121 121 121 121 25 121 121 121 21 8 121 5 121 21 0 121 121 121 121 14 121 121 18 15 121 34 121 29 121 11 34 121 12 121 20 29 121 121 121 121 121 121 121 121 121 121 23 121 121 121 121 121 121 121 121 6 7 121 39 121 121 121 27 24 121 121 121 121 10 121 31 121 121 121
121 121 121 121 25 121 121 3 121 26 121 93 112 121 42 61 121 14 64 121 88 121 121 31 121 121 121 121 121 121 121 28 121 66 121 49 121 32 121 25 52 121 0 121 121 121 121 121 121 121 31 121 9 83 15 121 121 53 121 29 121 21 121 121 121 121 121 121 43 12 36 121 29 38 121 121 121 121 79 121 87 121 121 121 121 70 121 121 69 49 21 121 78 121 75 121 121 121 121 121 121
41 28 121 121 121 28 121 121 43 121 121 27 121 121 121 121 17 121 121 121 24 121 15 121 121 121 26 30 22 25 121 121 44 11 121 121 121 36 121 47 121 121 121 0 121 121 36 121 34 121 121 11 121 18 121 121 121 121 121 121 121 121 19 43 44 14 121 42 30 60 35 121 40 121 121 121 121 35 121 121 121 25 121 121 121 121 38 23 121 121 121 14 24 121 121 38 15 121 121 121 16
121 73 121 26 121 121 18 121 30 121 121 121 17 121 121 121 121 121 121 121 121 121 121 121 121 121 121 121 121 121 121 121 121 121 27 121 121 121 121 121 121 121 121 121 0 30 121 7 121 121 121 121 121 121 121 121 121 121 21 121 24 121 121 121 121 121 17 36 121 121 121 121 121 121 121 23 2 121 87 3 47 121 121 121 24 121 121 121 121 121 121 121 121 18 121 121 121 121 19 26 121
121 44 121 121 121 121 21 121 1 121 121 47 121 121 121 121 121 121 121 121 121 121 34 121 121 121 39 121 121 43 121 121 121 121 4 121 121 121 121 121 121 121 121 121 30 0 121 24 31 121 121 121 121 121 121 121 121 121 27 121 16 121 121 17 31 121 121 8 121 121 121 121 121 121 121 24 28 20 121 32 121 121 121 121 19 121 22 29 121 121 121 43 121 36 121 121 33 121 13 9 121
22 121 121 121 21 8 121 36 121 14 121 121 121 23 19 121 23 121 121 121 121 121 121 22 13 15 121 26 27 121 121 121 31 40 121 121 5 17 15 31 121 14 121 36 121 121 0 121 30 121 7 26 121 121 121 121 7 121 121 13 121 21 20 121 121 27 121 121 31 37 28 121 13 121 121 121 121 121 121 121 121 14 9 13 121 121 121 121 121 121 29 121 121 121 121 8 121 121 121 121 25
121 67 121 121 121 121 18 121 25 121 121 71 23 121 121 121 121 121 121 121 121 121 121 121 121 121 62 121 121 67 121 121 121 121 21 121 121 121 121 121 121 121 121 121 7 24 121 0 121 121 121 121 121 121 121 121 121 121 23 121 23 121 121 29 121 121 23 29 121 121 121 121 121 121 121 24 5 37 121 10 121 121 121 121 24 121 121 53 121 121 121 121 121 23 121 121 121 121 16 19 121
13 121 41 35 121 26 31 121 31 121 121 121 121 14 121 121 20 121 121 40 121 46 36 121 121 30 47 47 43 121 33 121 11 44 121 121 30 44 28 121 121 121 121 34 121 31 30 121 0 35 121 31 121 121 121 121 121 121 31 121 25 121 20 18 11 20 121 36 121 121 121 121 42 121 30 27 121 11 121 121 42 33 28 25 24 121 10 38 121 121 121 43 121 121 121 24 19 36 31 121 36
22 121 16 46 121 121 121 121 121 40 16 121 121 21 14 24 121 41 22 30 121 22 121 121 19 16 121 121 121 121 34 31 25 121 121 10 26 121 15 121 7 18 121 121 121 121 121 121 35 0 33 121 47 121 40 24 29 24 121 29 121 33 42 121 32 121 121 121 121 121 121 21 121 22 39 121 121 121 38 121 33 121 22 18 121 22 121 121 22 18 34 121 121 121 24 25 121 15 121 121 121
29 121 121 121 15 14 121 29 121 7 18 121 121 121 20 121 121 121 121 121 121 121 121 18 15 18 121 25 28 121 121 29 121 121 121 35 9 14 19 25 36 15 31 121 121 121 7 121 121 33 0 30 28 121 25 121 5 121 121 8 121 15 26 121 121 121 121 121 121 30 121 121 8 32 121 121 121 121 121 121 121 17 13 18 121 121 121 121 121 121 23 121 58 121 121 14 121 121 121 121 28
35 121 121 121 31 18 121 121 121 32 121 38 121 36 121 121 12 121 121 121 34 121 26 27 121 121 37 20 13 36 121 121 40 15 121 121 30 25 121 37 121 121 121 11 121 121 26 121 31 121 30 0 121 29 121 121 32 121 121 121 121 121 12 121 42 13 121 121 22 50 25 121 28 121 121 121 121 37 121 121 121 14 32 35 121 121 39 34 121 121 121 26 30 121 121 29 17 121 121 121 6
121 121 121 121 27 121 121 6 121 24 36 121 105 121 34 52 121 6 55 121 121 121 121 121 33 37 121 121 121 121 121 19 121 121 121 41 121 121 39 29 44 34 9 121 121 121 121 121 121 47 28 121 0 121 7 121 29 45 121 23 121 15 121 121 121 121 121 121 121 19 121 121 27 30 121 121 121 121 71 121 80 121 121 121 121 61 121 121 60 41 13 121 80 121 67 121 121 121 121 121 121
121 13 121 121 58 121 121 82 121 60 121 10 121 121 121 121 34 121 121 121 6 121 15 53 121 121 14 43 35 11 121 121 121 18 121 121 121 121 121 60 121 121 83 18 121 121 121 121 121 121 121 29 121 0 121 121 121 121 121 121 121 121 37 121 121 31 121 44 42 75 48 121 121 121 121 121 121 121 121 121 121 42 121 121 121 121 121 20 121 121 121 6 15 121 121 121 30 121 121 54 31
121 121 121 121 27 121 121 12 121 23 31 121 121 121 28 46 121 1 121 121 121 121 121 121 28 31 121 121 121 121 121 13 121 121 121 34 121 121 34 121 37 29 15 121 121 121 121 121 121 40 25 121 7 121 0 121 25 39 121 19 121 10 121 121 121 121 121 121 121 25 121 121 26 23 121 121 121 121 64 121 121 121 121 121 121 121 121 121 121 34 6 121 121 121 121 121 121 121 121 121 121
121 121 9 43 121 121 121 121 121 121 121 121 55 40 37 21 121 121 16 20 121 4 121 121 121 121 121 121 121 121 29 121 39 121 121 26 121 121 121 121 23 121 121 121 121 121 121 121 121 24 121 121 121 121 121 0 121 27 50 121 121 121 121 121 43 121 54 121 121 121 121 4 121 121 38 121 121 121 19 67 22 121 121 121 121 8 121 121 9 27 121 121 121 51 1 121 121 14 121 121 121
26 121 121 121 20 15 121 31 121 12 13 121 121 121 16 121 121 121 121 121 121 121 121 121 10 13 121 30 32 121 121 26 121 121 121 30 6 18 15 121 31 11 121 121 121 121 7 121 121 29 5 32 29 121 25 121 0 121 121 6 121 15 27 121 121 121 121 121 121 34 121 121 12 28 121 121 121 121 121 121 121 20 9 14 121 121 121 121 121 121 22 121 121 121 121 12 121 121 121 121 31
121 121 27 65 59 121 121 50 121 51 34 121 80 121 28 8 121 39 12 44 121 121 121 121 35 34 121 121 121 121 52 26 121 121 121 15 121 121 35 67 17 34 53 121 121 121 121 121 121 24 121 121 45 121 39 27 121 0 121 39 121 38 121 121 121 121 79 121 121 63 121 27 121 16 121 121 121 121 26 90 47 121 121 121 121 20 121 121 19 7 33 121 103 121 27 121 121 121 121 121 121
121 121 121 10 121 121 7 121 27 121 121 121 18 121 121 121 121 121 121 32 121 121 121 121 121 121 121 121 121 121 21 121 29 121 26 121 121 121 121 121 121 121 121 121 21 27 121 23 31 121 121 121 121 121 121 50 121 121 0 121 12 121 121 17 23 121 17 121 121 121 121 121 121 121 12 4 20 121 69 20 30 121 121 121 9 121 22 121 121 121 121 121 121 11 51 121 121 40 14 29 121
121 121 45 121 21 21 121 26 121 12 14 121 121 30 15 121 121 20 45 121 121 121 121 25 11 15 121 121 121 121 121 21 121 121 121 28 11 21 17 30 29 12 29 121 121 121 13 121 121 29 8 121 23 121 19 121 6 39 121 0 121 9 121 121 121 121 121 121 121 31 121 121 14 24 121 121 121 121 121 121 121 25 13 17 121 48 121 121 121 32 16 121 67 121 121 17 121 43 121 121 121
121 57 121 21 121 121 8 121 16 121 121 121 28 121 121 121 121 121 121 121 121 121 44 121 121 121 51 121 121 121 29 121 27 121 17 121 121 121 121 121 121 121 121 121 24 16 121 23 25 121 121 121 121 121 121 121 121 121 12 121 0 121 121 7 20 121 27 24 121 121 121 121 121 121 21 8 23 15 121 26 121 121 121 121 3 121 15 41 121 121 121 121 121 22 121 121 35 121 7 20 121
121 121 121 121 22 121 121 18 121 15 22 121 121 121 21 44 121 11 121 121 121 121 121 27 19 22 121 121 121 121 121 15 121 121 121 30 20 25 25 29 32 20 21 121 121 121 21 121 121 33 15 121 15 121 10 121 15 38 121 9 121 0 121 121 121 121 121 121 121 26 121 121 18 22 121 121 121 121 63 121 121 32 22 121 121 121 121 121 121 32 8 121 72 121 121 121 121 121 121 121 121
23 121 121 121 33 12 121 121 43 30 121 121 121 24 121 121 3 121 121 121 121 121 29 30 30 29 121 27 23 121 52 121 28 26 121 121 23 26 28 121 121 29 121 19 121 121 20 121 20 42 26 12 121 37 121 121 27 121 121 121 121 121 0 36 30 7 121 121 31 121 32 121 27 121 50 46 121 28 121 121 121 14 24 25 43 121 29 35 121 121 121 32 41 121 121 19 13 49 121 121 16
29 53 121 25 121 121 14 121 16 121 121 121 121 29 121 121 34 121 121 40 121 121 39 121 121 121 47 121 121 121 30 121 22 121 19 121 121 121 121 121 121 121 121 43 121 17 121 29 18 121 121 121 121 121 121 121 121 121 17 121 7 121 36 0 15 32 121 24 121 121 121 121 121 121 23 13 30 8 121 33 40 121 121 121 8 121 8 37 121 121 121 121 121 28 121 121 28 43 13 23 121
15 121 34 25 121 35 24 121 31 121 121 121 39 15 121 121 30 121 121 30 121 39 45 121 121 121 121 121 121 121 23 121 7 121 121 121 121 121 30 121 121 121 121 44 121 31 121 121 11 32 121 42 121 121 121 43 121 121 23 121 20 121 30 15 0 30 38 38 121 121 121 121 121 121 20 19 41 14 62 43 31 42 121 28 18 121 10 46 121 121 121 121 121 32 43 29 29 29 27 121 121
26 121 121 121 121 19 121 121 37 121 121 121 121 27 121 121 4 121 121 121 121 121 22 121 121 121 35 32 26 36 53 121 30 24 121 121 121 33 121 121 121 121 121 14 121 121 27 121 20 121 121 13 121 31 121 121 121 121 121 121 121 121 7 32 30 0 121 39 34 121 121 121 35 121 50 44 121 24 121 121 121 21 121 31 40 121 26 28 121 121 121 26 38 121 121 26 5 53 121 121 18
121 121 121 15 121 121 20 121 121 121 121 121 1 121 121 74 121 121 69 35 121 52 121 121 121 121 121 121 121 121 27 121 44 121 121 121 121 121 121 121 121 121 121 121 17 121 121 23 121 121 121 121 121 121 121 54 121 79 17 121 27 121 121 121 38 121 0 121 121 121 121 53 121 121 21 21 18 121 72 15 32 121 121 121 25 61 121 121 63 121 121 121 121 6 55 121 121 48 26 121 121
121 38 121 121 121 121 29 121 8 121 121 41 121 121 121 121 121 121 121 121 45 121 30 121 121 121 32 121 121 37 121 121 121 53 9 121 121 121 121 121 121 121 121 42 36 8 121 29 36 121 121 121 121 44 121 121 121 121 121 121 24 121 121 24 38 39 121 0 121 121 121 121 121 121 121 121 34 26 121 121 121 121 121 121 27 121 29 24 121 121 121 39 58 121 121 121 33 121 21 10 121
121 54 121 121 20 28 121 43 121 26 121 52 121 121 121 121 32 121 121 121 46 121 45 14 121 121 54 5 9 52 121 121 121 24 121 121 121 16 121 19 121 121 43 30 121 121 31 121 121 121 121 22 121 42 121 121 121 121 121 121 121 121 31 121 121 34 121 121 0 33 7 121 23 121 121 121 121 121 121 121 121 19 121 121 121 121 121 121 121 121 121 41 35 121 121 121 39 121 121 121 17
121 87 121 121 19 121 121 14 121 23 121 84 121 121 46 70 121 24 121 121 80 121 121 23 42 121 121 32 39 84 121 37 121 57 121 121 121 26 121 14 121 121 12 60 121 121 37 121 121 121 30 50 19 75 25 121 34 63 121 31 121 26 121 121 121 121 121 121 33 0 27 121 25 47 121 121 121 121 88 121 121 38 121 121 121 121 121 121 121 58 30 73 68 121 121 121 121 121 121 121 45
121 121 121 121 13 26 121 36 121 20 121 58 121 121 121 121 121 121 121 121 53 121 121 8 121 121 121 5 13 121 121 121 121 30 121 121 121 11 121 12 121 121 36 35 121 121 28 121 121 121 121 25 121 48 121 121 121 121 121 121 121 121 32 121 121 121 121 121 7 27 0 121 18 121 121 121 121 121 121 121 121 18 121 121 121 121 121 121 121 121 121 47 41 121 121 121 121 121 121 121 20
121 121 5 40 121 121 121 121 121 121 121 121 54 36 34 22 121 121 16 18 121 1 121 121 121 121 121 121 121 121 27 121 35 121 121 23 121 121 36 121 21 121 121 121 121 121 121 121 121 21 121 121 121 121 121 4 121 27 121 121 121 121 121 121 121 121 53 121 121 121 121 0 121 121 121 121 121 121 23 121 20 121 121 121 121 9 121 121 11 26 121 121 121 121 5 121 121 10 121 121 121
35 121 121 121 8 17 121 27 121 4 121 121 121 121 28 121 31 121 121 121 121 121 121 10 22 121 121 19 23 121 121 121 121 40 121 121 16 7 121 18 121 121 29 40 121 121 13 121 42 121 8 28 27 121 26 121 12 121 121 14 121 18 27 121 121 35 121 121 23 25 18 121 0 121 121 121 121 121 121 121 121 15 20 25 121 121 121 121 121 121 26 121 54 121 121 21 121 121 121 121 25
121 121 34 121 121 121 121 35 121 35 23 121 83 39 18 23 121 24 25 121 121 121 121 121 23 24 121 121 121 121 121 11 121 121 121 13 30 121 25 121 17 23 38 121 121 121 121 121 121 22 32 121 30 121 23 121 28 16 121 24 121 22 121 121 121 121 121 121 121 47 121 121 121 0 121 121 121 121 41 121 54 121 29 29 121 32 121 121 31 11 17 121 121 121 38 121 121 35 121 121 121
32 121 33 7 121 121 19 121 37 121 121 121 22 32 121 121 50 121 121 19 121 34 121 121 121 121 121 121 121 121 9 121 24 121 121 121 121 121 121 121 121 121 121 121 121 121 121 121 30 39 121 121 121 121 121 38 121 121 12 121 21 121 50 23 20 50 21 121 121 121 121 121 121 121 0 13 32 28 57 31 18 121 121 121 18 121 25 121 121 121 121 121 121 15 38 121 47 29 26 121 121
34 121 121 13 121 121 6 121 24 121 121 121 22 34 121 121 45 121 121 32 121 121 121 121 121 121 121 121 121 121 22 121 26 121 24 121 121 121 121 121 121 121 121 121 23 24 121 24 27 121 121 121 121 121 121 121 121 121 4 121 8 121 46 13 19 44 21 121 121 121 121 121 121 121 13 0 23 20 121 24 32 121 121 121 5 121 18 121 121 121 121 121 121 15 121 121 41 40 13 27 121
121 71 121 26 121 121 17 121 28 121 121 121 18 121 121 121 121 121 121 121 121 121 121 121 121 121 121 121 121 121 121 121 121 121 25 121 121 121 121 121 121 121 121 121 2 28 121 5 121 121 121 121 121 121 121 121 121 121 20 121 23 121 121 30 41 121 18 34 121 121 121 121 121 121 32 23 0 38 87 5 48 121 121 121 23 121 121 57 121 121 121 121 121 19 121 121 121 121 18 24 121
24 48 121 121 121 36 23 121 19 121 121 121 121 24 121 121 26 121 121 121 121 121 33 121 121 121 43 121 121 46 34 121 19 47 23 121 121 121 121 121 121 121 121 35 121 20 121 37 11 121 121 37 121 121 121 121 121 121 121 121 15 121 28 8 14 24 121 26 121 121 121 121 121 121 28 20 38 0 121 121 121 42 121 36 16 121 4 32 121 121 121 41 121 121 121 35 20 43 21 28 121
121 121 28 61 121 121 76 76 121 121 121 121 72 121 48 18 121 65 17 38 121 23 121 121 121 121 121 121 121 121 48 52 57 121 121 34 121 121 121 121 33 121 79 121 87 121 121 121 121 38 121 121 71 121 64 19 121 26 69 121 121 63 121 121 62 121 72 121 121 88 121 23 121 41 57 121 87 121 0 85 40 121 121 121 121 16 121 121 15 30 59 121 121 69 19 121 121 33 121 121 121
121 121 121 25 121 121 19 121 33 121 121 121 14 121 121 86 121 121 81 48 121 121 121 121 121 121 121 121 121 121 38 121 121 121 29 121 121 121 121 121 121 121 121 121 3 32 121 10 121 121 121 121 121 121 121 67 121 90 20 121 26 121 121 33 43 121 15 121 121 121 121 121 121 121 31 24 5 121 85 0 46 121 121 121 25 74 121 121 76 121 121 121 121 16 68 121 121 121 21 28 121
37 121 20 22 121 121 37 121 121 121 121 121 33 37 121 42 121 121 37 3 121 19 121 121 121 121 121 121 121 121 10 64 31 121 121 121 121 121 121 121 37 121 87 121 47 121 121 121 42 33 121 121 80 121 121 22 121 47 30 121 121 121 121 40 31 121 32 121 121 121 121 20 121 54 18 32 48 121 40 46 0 121 121 121 36 29 40 121 31 45 121 121 121 29 22 121 121 19 121 121 121
31 121 121 121 19 9 121 42 121 18 121 121 121 32 121 121 17 121 121 121 121 121 39 16 27 121 121 15 13 121 121 121 38 27 121 121 19 12 121 26 121 121 121 25 121 121 14 121 33 121 17 14 121 42 121 121 20 121 121 25 121 32 14 121 42 21 121 121 19 38 18 121 15 121 121 121 121 42 121 121 121 0 22 26 121 121 42 121 121 121 121 39 42 121 121 20 26 121 121 121 11
17 121 121 121 121 14 121 121 121 20 7 121 121 17 12 121 27 121 121 121 121 121 121 121 6 7 121 121 121 121 121 30 25 121 121 26 4 121 7 121 26 6 121 121 121 121 9 121 28 22 13 32 121 121 121 121 9 121 121 13 121 22 24 121 121 121 121 121 121 121 121 121 20 29 121 121 121 121 121 121 121 22 0 5 121 121 121 121 121 121 27 121 121 121 121 4 121 34 121 121 121
13 121 33 121 121 18 121 121 121 121 5 121 121 13 11 121 28 121 121 42 121 39 121 121 7 5 121 121 121 121 41 32 21 121 121 24 9 121 3 121 23 7 121 121 121 121 13 121 25 18 18 35 121 121 121 121 14 121 121 17 121 121 25 121 28 31 121 121 121 121 121 121 25 29 121 121 121 36 121 121 121 26 5 0 121 121 34 121 121 121 30 121 121 121 121 6 34 30 121 121 121
34 121 121 18 121 121 7 121 19 121 121 121 26 34 121 121 42 121 121 37 121 121 121 121 121 121 121 121 121 121 26 121 26 121 20 121 121 121 121 121 121 121 121 121 24 19 121 24 24 121 121 121 121 121 121 121 121 121 9 121 3 121 43 8 18 40 25 27 121 121 121 121 121 121 18 5 23 16 121 25 36 121 121 121 0 121 15 44 121 121 121 121 121 20 121 121 37 43 9 23 121
121 121 12 49 121 121 121 121 121 121 38 121 62 41 34 13 121 121 8 27 121 10 121 121 40 37 121 121 121 121 36 43 41 121 121 21 121 121 37 121 19 39 70 121 121 121 121 121 121 22 121 121 61 121 121 8 121 20 121 48 121 121 121 121 121 121 61 121 121 121 121 9 121 32 121 121 121 121 16 74 29 121 121 121 121 0 121 121 2 21 48 121 121 121 7 121 121 17 121 121 121
22 121 121 28 121 36 21 121 22 121 121 121 121 22 121 121 27 121 121 39 121 121 36 121 121 121 46 121 121 121 30 121 16 121 121 121 121 121 121 121 121 121 121 38 121 22 121 121 10 121 121 39 121 121 121 121 121 121 22 121 15 121 29 8 10 26 121 29 121 121 121 121 121 121 25 18 121 4 121 121 40 42 121 34 15 121 0 36 121 121 121 121 121 121 121 34 23 39 21 121 121
50 16 121 121 121 121 48 121 28 121 121 18 121 121 121 121 32 121 121 121 22 121 9 121 121 121 10 121 121 14 121 121 49 31 32 121 121 121 121 121 121 121 121 23 121 29 121 53 38 121 121 34 121 20 121 121 121 121 121 121 41 121 35 37 46 28 121 24 121 121 121 121 121 121 121 121 57 32 121 121 121 121 121 121 44 121 36 0 121 121 121 16 121 121 121 121 24 121 41 34 121
121 121 14 51 121 121 121 121 121 121 121 121 64 121 34 12 121 121 7 28 121 12 121 121 121 121 121 121 121 121 37 42 121 121 121 20 121 121 121 121 19 121 69 121 121 121 121 121 121 22 121 121 60 121 121 9 121 19 121 121 121 121 121 121 121 121 63 121 121 121 121 11 121 31 121 121 121 121 15 76 31 121 121 121 121 2 121 121 0 20 121 121 121 121 9 121 121 18 121 121 121
121 121 25 121 121 121 121 46 121 121 27 121 77 39 21 12 121 35 14 121 121 28 121 121 28 27 121 121 121 121 121 22 121 121 121 8 121 121 28 121 11 27 49 121 121 121 121 121 121 18 121 121 41 121 34 27 121 7 121 32 121 32 121 121 121 121 121 121 121 58 121 26 121 11 121 121 121 121 30 121 45 121 121 121 121 21 121 121 20 0 28 121 121 121 27 121 121 27 121 121 121
121 121 49 121 29 121 121 18 121 23 26 121 121 43 23 40 121 7 43 121 121 121 121 121 23 26 121 121 121 121 121 8 121 121 121 28 26 121 28 121 31 24 21 121 121 121 29 121 121 34 23 121 13 121 6 121 22 33 121 16 121 8 121 121 121 121 121 121 121 30 121 121 26 17 121 121 121 121 59 121 121 121 27 30 121 48 121 121 121 28 0 121 121 121 121 121 121 48 121 121 121
121 13 121 121 121 121 121 121 43 121 121 12 121 121 121 121 30 121 121 121 10 121 9 121 121 121 13 42 34 11 121 121 121 18 47 121 121 121 121 59 121 121 121 14 121 43 121 121 43 121 121 26 121 6 121 121 121 121 121 121 121 121 32 121 121 26 121 39 41 73 47 121 121 121 121 121 121 41 121 121 121 39 121 121 121 121 121 16 121 121 121 0 19 121 121 121 25 121 121 49 29
121 26 121 121 53 121 121 78 121 58 121 22 121 121 121 121 40 121 121 121 16 121 28 48 121 121 29 37 31 25 121 121 121 15 121 121 121 48 121 53 121 121 78 24 121 121 121 121 121 121 58 30 80 15 121 121 121 103 121 67 121 72 41 121 121 38 121 58 35 68 41 121 54 121 121 121 121 121 121 121 121 42 121 121 121 121 121 121 121 121 121 19 0 121 121 121 39 121 121 69 30
121 121 121 9 121 121 15 121 36 121 121 121 7 121 121 121 121 121 121 31 121 121 121 121 121 121 121 121 121 121 22 121 38 121 34 121 121 121 121 121 121 121 121 121 18 36 121 23 121 121 121 121 121 121 121 51 121 121 11 121 22 121 121 28 32 121 6 121 121 121 121 121 121 121 15 15 19 121 69 16 29 121 121 121 20 121 121 121 121 121 121 121 121 0 51 121 121 43 22 36 121
121 121 10 43 121 121 121 121 121 121 121 121 56 121 38 21 121 121 15 20 121 5 121 121 121 121 121 121 121 121 30 49 39 121 121 26 121 121 121 121 23 121 75 121 121 121 121 121 121 24 121 121 67 121 121 1 121 27 51 121 121 121 121 121 43 121 55 121 121 121 121 5 121 38 38 121 121 121 19 68 22 121 121 121 121 7 121 121 9 27 121 121 121 51 0 121 121 15 121 121 121
15 121 121 121 29 11 121 121 121 22 10 121 121 15 16 121 22 121 121 121 121 121 121 121 10 10 121 34 33 121 45 121 23 44 121 121 6 25 9 121 121 10 121 38 121 121 8 121 24 25 14 29 121 121 121 121 12 121 121 17 121 121 19 121 29 26 121 121 121 121 121 121 21 121 121 121 121 35 121 121 121 20 4 6 121 121 34 121 121 121 121 121 121 121 121 0 30 35 121 121 30
28 35 121 121 121 24 121 121 32 121 121 121 121 29 121 121 9 121 121 121 121 121 19 121 121 121 31 121 31 33 51 121 30 26 37 121 121 121 121 121 121 121 121 15 121 33 121 121 19 121 121 17 121 30 121 121 121 121 121 121 35 121 13 28 29 5 121 33 39 121 121 121 121 121 47 41 121 20 121 121 121 26 121 34 37 121 23 24 121 121 121 25 39 121 121 30 0 54 39 41 23
27 121 5 35 121 121 121 121 121 121 29 121 49 26 28 121 51 121 22 16 121 10 121 121 32 29 121 121 121 121 21 45 25 121 121 22 121 121 28 121 19 31 121 121 121 121 121 121 36 15 121 121 121 121 121 14 121 121 40 43 121 121 49 43 29 53 48 121 121 121 121 10 121 35 29 40 121 43 33 121 19 121 34 30 43 17 39 121 18 27 48 121 121 43 15 35 54 0 121 121 121
121 57 121 24 121 121 8 121 14 121 121 60 27 121 121 121 121 121 121 121 121 121 46 121 121 121 51 121 121 56 121 121 121 121 12 121 121 121 121 121 121 121 121 121 19 13 121 16 31 121 121 121 121 121 121 121 121 121 14 121 7 121 121 13 27 121 26 21 121 121 121 121 121 121 26 13 18 21 121 21 121 121 121 121 9 121 21 41 121 121 121 121 121 22 121 121 39 121 0 15 121
121 48 121 121 121 121 22 121 9 121 121 51 121 121 121 121 121 121 121 121 56 121 41 121 121 121 43 121 121 47 121 121 121 121 5 121 121 121 121 121 121 121 121 121 26 9 121 19 121 121 121 121 121 54 121 121 121 121 29 121 20 121 121 23 121 121 121 10 121 121 121 121 121 121 121 27 24 28 121 28 121 121 121 121 23 121 121 34 121 121 121 49 69 36 121 121 41 121 15 0 121
38 121 121 121 27 18 121 121 121 29 121 41 121 121 121 121 16 121 121 121 37 121 30 22 121 121 41 15 8 40 121 121 121 15 121 121 30 20 121 31 121 121 121 16 121 121 25 121 36 121 28 6 121 31 121 121 31 121 121 121 121 121 16 121 121 18 121 121 17 45 20 121 25 121 121 121 121 121 121 121 121 11 121 121 121 121 121 121 121 121 121 29 30 121 121 30 23 121 121 121 0
EOF
